102779
36,12,72,63,0,9,28,44,45,53,20,4,21,43,67,58,52,7,82,60,5,78,27,34,29,1,37,15,26,32,10,74,81,39,31,73,57,76,8,70,65,35,25,79,61,69,13,75,66,19,16,55,6,50,71,80,59,46,48,33,56,42,2,11,22,54,41,24,14,68,77,40,51,38,62,3,49,64,30,23,18,47,17
